1637 1456 1356 1291 1279 1193 1173 1107 1075 1046 994 964 934 897 867 829 807 778 735 703 687 660 653 645 640 635 630 622 618 610 605 603 597 597 593 593 590 590 590 589 589 589 589 589 589 589 589 589 589 589 589 589 589 589 589 589 589 589 589 589 589 589 589 589 589 589 589 589 589 589 589 589 589 589 589 589 589 589 589 589 589 589 589 589 589 589 589 589 589 589 589 589 588 588 588 587 587 587 587 587 587 587 587 587 587 587 587 587 587 587 587 587 587 587 587 587 587 587 587 587 587 587 587 587 587 587 587 587 587 587 587 587 587 587 587 587 587 587 587 587 587 587 587 587 587 587 587 587 587 587 587 587 587 587 587 587 587 587 587 587 587 587 587 587 587 587 587 587 587 587 587 587 587 587 587 587 587 587 587 587 587 587 587 587 587 587 587 587 587 587 587 587 587 587 587 587 587 587 587 587 587 587 587 587 587 587 587 587 587 587 587 587 587 587 587 587 587 587 587 587 587 587 587 587 587 587 587 587 587 587 587 587 587 587 587 587 587 587 587 587 587 587 587 587 587 587 587 587 587 587 587 587 587 587 587 587 587 587 587 587 587 587 587 587 587 587 587 587 587 587 587 587 587 587 587 587 587 587 587 587 587 587 587 587 587 587 587 587 587 587 587 587 587 587 587 587 587 587 587 587 587 587 587 587 587 587 587 587 587 587 587 587 587 587 587 587 587 587 587 587 587 587 587 587 587 587 587 587 587 587 587 587 587 587 587 587 587 587 587 587 587 587 587 587 587 587 587 587 587 587 587 587 587 587 587 587 587 587 587 587 587 587 587 587 587 587 587 587 587 587 587 587 587 587 587 587 587 587 587 587 587 587 587 587 587 587 587 587 587 587 587 587 587 587 587 587 587 587 587 587 587 587 587 587 587 587 587 587 587 587 587 587 587 587 587 587 587 587 587 587 587 587 587 587 587 587 587 587 587 587 587 587 587 587 587 587 587 587 587 587 587 587 587 587 587 587 587 587 587 587 587 587 587 587 587 587 587 587 587 587 587 587 587 587 587 587 587 587 587 587 587 587 587 587 587 587 587 587 587 587 587 587 587 587 587 587 587 587 587 587 587 587 587 587 587 587 587 587 587 587 587 587 587 587 587 587 587 587 587 587 587 587 587 587 587 587 587 587 587 587 587 587 587 587 587 587 587 587 587 587 587 587 587 587 587 587 587 587 587 587 587 587 587 587 587 587 587 587 587 587 587 587 587 587 587 587 587 587 587 587 587 587 587 587 587 587 587 587 587 587 587 587 587 587 587 587 587 587 587 587 587 587 587 587 587 587 587 587 587 587 587 587 587 587 587 587 587 587 587 587 587 587 587 587 587 587 587 587 587 587 587 587 587 587 587 587 587 587 587 587 587 587 587 587 587 587 587 587 587 587 587 587 587 587 587 587 587 587 587 587 587 587 587 587 587 587 587 587 587 587 587 587 587 587 587 587 587 587 587 587 587 587 587 587 587 587 587 587 587 587 587 587 587 587 587 587 587 587 587 587 587 587 587 587 587 587 587 587 587 587 587 587 587 587 587 587 587 587 587 587 587 587 587 587 587 587 587 587 587 587 587 587 587 587 587 587 587 587 587 587 587 587 587 587 587 587 587 587 587 587 587 587 587 587 587 587 587 587 587 587 587 587 587 587 587 587 587 587 587 587 587 587 587 587 587 587 587 587 587 587 587 587 587 587 587 587 587 587 587 587 587 587 587 587 587 587 587 587 587 587 587 587 587 587 587 587 587 587 587 587 587 587 587 587 587 587 587 587 587 587 587 587 587 587 587 587 587 587 587 587 587 587 587 587 587 587 587 587 587 587 587 587 587 587 587 587 587 587 587 587 587 587 587 587 587 587 587 587 587 587 587 587 587 587 587 587 587 587 587 587 587 587 587 587 587 587 587 587 587 587 587 587 587 587 587 587 587 587 587 587 587 587 587 587 587 587 587 587 587 587 587 587 587 587 587 587 587 587 587 587 587 587 587 587 587 587 587 587 587 587 587 587 587 587 587 587 587 587 587 587 587 587 587 587 587 587 587 587 587 587 587 587 587 587 587 587 587 587 587 587 587 587 587 587 587 587 587 587 587 587 587 587 587 587 587 587 587 587 587 587 587 587 587 587 587 587 587 587 587 587 587 587 587 587 587 587 587 587 587 587 587 587 587 587 587 587 587 587 587 587 587 587 587 587 587 587 587 587 587 587 587 587 587 587 587 587 587 587 587 587 587 587 587 587 587 587 587 587 587 587 587 587 587 587 587 587 587 587 587 587 587 587 587 587 587 587 587 587 587 587 587 587 587 587 587 587 587 587 587 587 587 587 587 587 587 587 587 587 587 587 587 587 587 587 587 587 587 587 587 587 587 587 587 587 587 587 587 587 587 587 587 587 587 587 587 587 587 587 587 587 587 587 587 587 587 587 587 587 587 587 587 587 587 587 587 587 587 587 587 587 587 587 587 587 587 587 587 587 587 587 587 587 587 587 587 587 587 587 587 587 587 587 587 587 587 587 587 587 587 587 587 587 587 587 587 587 587 587 587 587 587 587 587 587 587 587 587 587 587 587 587 587 587 587 587 587 587 587 587 587 587 587 587 587 587 587 587 587 587 587 587 587 587 587 587 587 587 587 587 587 587 587 587 587 587 587 587 587 587 587 587 587 587 587 587 587 587 587 587 587 587 587 587 587 587 587 587 587 587 587 587 587 587 587 587 587 587 587 587 587 587 587 587 587 587 587 587 587 587 587 587 587 587 587 587 587 587 587 587 587 587 587 587 587 587 587 587 587 587 587 587 587 587 587 587 587 587 587 587 587 587 587 587 587 587 587 587 587 587 587 587 587 587 587 587 587 587 587 587 587 587 587 587 587 587 587 587 587 587 587 587 587 587 587 587 587 587 587 587 587 587 587 587 587 587 587 587 587 587 587 587 587 587 587 587 587 587 587 587 587 587 587 587 587 587 587 587 587 587 587 587 587 587 587 587 587 587 587 587 587 587 587 587 587 587 587 587 587 587 587 587 587 587 587 587 587 587 587 587 587 587 587 587 587 587 587 587 587 587 587 587 587 587 587 587 587 587 587 587 587 587 587 587 587 587 587 587 587 587 587 587 587 587 587 587 587 587 587 587 587 587 587 587 587 587 587 587 587 587 587 587 587 587 587 587 587 587 587 587 587 587 587 587 587 587 587 587 587 587 587 587 587 587 587 587 587 587 587 587 587 587 587 587 587 587 587 587 587 587 587 587 587 587 587 587 587 587 587 587 587 587 587 587 587 587 587 587 587 587 587 587 587 587 587 587 587 587 587 587 587 587 587 587 587 587 587 587 587 587 587 587 587 587 587 587 587 587 587 587 587 587 587 587 587 587 587 587 587 587 587 587 587 587 587 587 587 587 587 587 587 587 587 587 587 587 587 587 587 587 587 587 587 587 587 587 587 587 587 587 587 587 587 587 587 587 587 587 587 587 587 587 587 587 587 587 587 587 587 587 587 587 587 587 587 587 587 587 587 587 587 587 587 587 587 587 587 587 587 587 587 587 587 587 587 587 587 587 587 587 587 587 587 587 587 587 587 587 587 587 587 587 587 587 587 587 587 587 587 587 587 587 587 587 587 587 587 587 587 587 587 587 587 587 587 587 587 587 587 587 587 587 587 587 587 587 587 587 587 587 587 587 587 587 587 587 587 587 587 587 587 587 587 587 587 587 587 587 587 587 587 587 587 587 587 587 587 587 587 587 587 587 587 587 587 587 587 587 587 587 587 587 587 587 587 587 587 587 587 587 587 587 587 587 587 587 587 587 587 587 587 587 587 587 587 587 587 587 587 587 587 587 587 587 587 587 587 587 587 587 587 587 587 587 587 587 587 587 587 587 587 587 587 587 587 587 587 587 587 587 587 587 587 587 587 587 587 587 587 587 587 587 587 587 587 587 587 587 587 587 587 587 587 587 587 587 587 587 587 587 587 587 587 587 587 587 587 587 587 587 587 587 587 587 587 587 587 587 587 587 587 587 587 587 587 587 587 587 587 587 587 587 587 587 587 587 587 587 587 587 587 587 587 587 587 587 587 587 587 587 587 587 587 587 587 587 587 587 587 587 587 587 587 587 587 587 587 587 587 587 587 587 587 587 587 587 587 587 587 587 587 587 587 587 587 587 587 587 587 587 587 587 587 587 587 587 587 587 587 587 587 587 587 587 587 587 587 587 587 587 587 587 587 587 587 587 587 587 587 587 587 587 587 587 587 587 587 587 587 587 587 587 587 587 587 587 587 587 587 587 587 587 587 587 587 587 587 587 587 587 587 587 587 587 587 587 587 587 587 587 587 587 587 587 587 587 587 587 587 587 587 587 587 587 587 587 587 587 587 587 587 587 587 587 587 587 587 587 587 587 587 587 587 587 587 587 587 587 587 587 587 587 587 587 587 587 587 587 587 587 587 587 587 587 587 587 587 587 587 587 587 587 587 587 587 587 587 587 587 587 587 
1898 1738 1627 1526 1440 1366 1306 1259 1209 1164 1117 1079 1041 1002 966 932 895 856 816 781 747 717 691 670 655 648 642 635 629 623 617 612 607 602 598 596 594 592 591 589 589 589 589 589 589 589 589 589 589 589 589 589 589 589 589 589 589 589 589 589 589 589 589 589 589 589 589 589 589 589 589 589 589 589 589 589 589 589 589 589 589 589 589 589 589 589 589 589 589 589 589 589 588 588 588 588 587 587 587 587 587 587 587 587 587 587 587 587 587 587 587 587 587 587 587 587 587 587 587 587 587 587 587 587 587 587 587 587 587 587 587 587 587 587 587 587 587 587 587 587 587 587 587 587 587 587 587 587 587 587 587 587 587 587 587 587 587 587 587 587 587 587 587 587 587 587 587 587 587 587 587 587 587 587 587 587 587 587 587 587 587 587 587 587 587 587 587 587 587 587 587 587 587 587 587 587 587 587 587 587 587 587 587 587 587 587 587 587 587 587 587 587 587 587 587 587 587 587 587 587 587 587 587 587 587 587 587 587 587 587 587 587 587 587 587 587 587 587 587 587 587 587 587 587 587 587 587 587 587 587 587 587 587 587 587 587 587 587 587 587 587 587 587 587 587 587 587 587 587 587 587 587 587 587 587 587 587 587 587 587 587 587 587 587 587 587 587 587 587 587 587 587 587 587 587 587 587 587 587 587 587 587 587 587 587 587 587 587 587 587 587 587 587 587 587 587 587 587 587 587 587 587 587 587 587 587 587 587 587 587 587 587 587 587 587 587 587 587 587 587 587 587 587 587 587 587 587 587 587 587 587 587 587 587 587 587 587 587 587 587 587 587 587 587 587 587 587 587 587 587 587 587 587 587 587 587 587 587 587 587 587 587 587 587 587 587 587 587 587 587 587 587 587 587 587 587 587 587 587 587 587 587 587 587 587 587 587 587 587 587 587 587 587 587 587 587 587 587 587 587 587 587 587 587 587 587 587 587 587 587 587 587 587 587 587 587 587 587 587 587 587 587 587 587 587 587 587 587 587 587 587 587 587 587 587 587 587 587 587 587 587 587 587 587 587 587 587 587 587 587 587 587 587 587 587 587 587 587 587 587 587 587 587 587 587 587 587 587 587 587 587 587 587 587 587 587 587 587 587 587 587 587 587 587 587 587 587 587 587 587 587 587 587 587 587 587 587 587 587 587 587 587 587 587 587 587 587 587 587 587 587 587 587 587 587 587 587 587 587 587 587 587 587 587 587 587 587 587 587 587 587 587 587 587 587 587 587 587 587 587 587 587 587 587 587 587 587 587 587 587 587 587 587 587 587 587 587 587 587 587 587 587 587 587 587 587 587 587 587 587 587 587 587 587 587 587 587 587 587 587 587 587 587 587 587 587 587 587 587 587 587 587 587 587 587 587 587 587 587 587 587 587 587 587 587 587 587 587 587 587 587 587 587 587 587 587 587 587 587 587 587 587 587 587 587 587 587 587 587 587 587 587 587 587 587 587 587 587 587 587 587 587 587 587 587 587 587 587 587 587 587 587 587 587 587 587 587 587 587 587 587 587 587 587 587 587 587 587 587 587 587 587 587 587 587 587 587 587 587 587 587 587 587 587 587 587 587 587 587 587 587 587 587 587 587 587 587 587 587 587 587 587 587 587 587 587 587 587 587 587 587 587 587 587 587 587 587 587 587 587 587 587 587 587 587 587 587 587 587 587 587 587 587 587 587 587 587 587 587 587 587 587 587 587 587 587 587 587 587 587 587 587 587 587 587 587 587 587 587 587 587 587 587 587 587 587 587 587 587 587 587 587 587 587 587 587 587 587 587 587 587 587 587 587 587 587 587 587 587 587 587 587 587 587 587 587 587 587 587 587 587 587 587 587 587 587 587 587 587 587 587 587 587 587 587 587 587 587 587 587 587 587 587 587 587 587 587 587 587 587 587 587 587 587 587 587 587 587 587 587 587 587 587 587 587 587 587 587 587 587 587 587 587 587 587 587 587 587 587 587 587 587 587 587 587 587 587 587 587 587 587 587 587 587 587 587 587 587 587 587 587 587 587 587 587 587 587 587 587 587 587 587 587 587 587 587 587 587 587 587 587 587 587 587 587 587 587 587 587 587 587 587 587 587 587 587 587 587 587 587 587 587 587 587 587 587 587 587 587 587 587 587 587 587 587 587 587 587 587 587 587 587 587 587 587 587 587 587 587 587 587 587 587 587 587 587 587 587 587 587 587 587 587 587 587 587 587 587 587 587 587 587 587 587 587 587 587 587 587 587 587 587 587 587 587 587 587 587 587 587 587 587 587 587 587 587 587 587 587 587 587 587 587 587 587 587 587 587 587 587 587 587 587 587 587 587 587 587 587 587 587 587 587 587 587 587 587 587 587 587 587 587 587 587 587 587 587 587 587 587 587 587 587 587 587 587 587 587 587 587 587 587 587 587 587 587 587 587 587 587 587 587 587 587 587 587 587 587 587 587 587 587 587 587 587 587 587 587 587 587 587 587 587 587 587 587 587 587 587 587 587 587 587 587 587 587 587 587 587 587 587 587 587 587 587 587 587 587 587 587 587 587 587 587 587 587 587 587 587 587 587 587 587 587 587 587 587 587 587 587 587 587 587 587 587 587 587 587 587 587 587 587 587 587 587 587 587 587 587 587 587 587 587 587 587 587 587 587 587 587 587 587 587 587 587 587 587 587 587 587 587 587 587 587 587 587 587 587 587 587 587 587 587 587 587 587 587 587 587 587 587 587 587 587 587 587 587 587 587 587 587 587 587 587 587 587 587 587 587 587 587 587 587 587 587 587 587 587 587 587 587 587 587 587 587 587 587 587 587 587 587 587 587 587 587 587 587 587 587 587 587 587 587 587 587 587 587 587 587 587 587 587 587 587 587 587 587 587 587 587 587 587 587 587 587 587 587 587 587 587 587 587 587 587 587 587 587 587 587 587 587 587 587 587 587 587 587 587 587 587 587 587 587 587 587 587 587 587 587 587 587 587 587 587 587 587 587 587 587 587 587 587 587 587 587 587 587 587 587 587 587 587 587 587 587 587 587 587 587 587 587 587 587 587 587 587 587 587 587 587 587 587 587 587 587 587 587 587 587 587 587 587 587 587 587 587 587 587 587 587 587 587 587 587 587 587 587 587 587 587 587 587 587 587 587 587 587 587 587 587 587 587 587 587 587 587 587 587 587 587 587 587 587 587 587 587 587 587 587 587 587 587 587 587 587 587 587 587 587 587 587 587 587 587 587 587 587 587 587 587 587 587 587 587 587 587 587 587 587 587 587 587 587 587 587 587 587 587 587 587 587 587 587 587 587 587 587 587 587 587 587 587 587 587 587 587 587 587 587 587 587 587 587 587 587 587 587 587 587 587 587 587 587 587 587 587 587 587 587 587 587 587 587 587 587 587 587 587 587 587 587 587 587 587 587 587 587 587 587 587 587 587 587 587 587 587 587 587 587 587 587 587 587 587 587 587 587 587 587 587 587 587 587 587 587 587 587 587 587 587 587 587 587 587 587 587 587 587 587 587 587 587 587 587 587 587 587 587 587 587 587 587 587 587 587 587 587 587 587 587 587 587 587 587 587 587 587 587 587 587 587 587 587 587 587 587 587 587 587 587 587 587 587 587 587 587 587 587 587 587 587 587 587 587 587 587 587 587 587 587 587 587 587 587 587 587 587 587 587 587 587 587 587 587 587 587 587 587 587 587 587 587 587 587 587 587 587 587 587 587 587 587 587 587 587 587 587 587 587 587 587 587 587 587 587 587 587 587 587 587 587 587 587 587 587 587 587 587 587 587 587 587 587 587 587 587 587 587 587 587 587 587 587 587 587 587 587 587 587 587 587 587 587 587 587 587 587 587 587 587 587 587 587 587 587 587 587 587 587 587 587 587 587 587 587 587 587 587 587 587 587 587 587 587 587 587 587 587 587 587 587 587 587 587 587 587 587 587 587 587 587 587 587 587 587 587 587 587 587 587 587 587 587 587 587 587 587 587 587 587 587 587 587 587 587 587 587 587 587 587 587 587 587 587 587 587 587 587 587 587 587 587 587 587 587 587 587 587 587 587 587 587 587 587 587 587 587 587 587 587 587 587 587 587 587 587 587 587 587 587 587 587 587 587 587 587 587 587 587 587 587 587 587 587 587 587 587 587 587 587 587 587 587 587 587 587 587 587 587 587 587 587 587 587 587 587 587 587 587 587 587 587 587 587 587 587 587 587 587 587 587 587 587 587 587 587 587 587 587 587 587 587 587 587 587 587 587 587 587 587 587 587 587 587 587 587 587 587 587 587 587 587 587 587 587 587 587 587 587 587 587 587 587 587 587 587 587 587 587 587 587 587 587 587 587 587 587 587 587 587 587 587 587 587 587 587 587 587 587 587 587 587 587 587 587 587 587 587 587 587 587 587 587 587 587 587 587 587 587 587 587 587 587 587 587 587 587 587 587 587 587 587 587 587 587 587 587 587 587 587 587 587 587 587 587 587 587 587 587 587 587 587 587 587 587 587 587 587 587 587 